benchmarks_vrp/CMT2/fixed_c/CMT2_9.vrp
NAME: CMT2_9
TYPE: CVRP
COMMENT: 835.26 - Cluster Nr.9
DIMENSION: 8
CAPACITY: 140
EDGE_WEIGHT_TYPE: EUC_2D
NODE_COORD_TYPE: TWOD_COORDS
NODE_COORD_SECTION: 
6 55 57
8 40 40
5 47 66
7 62 57
4 57 72
2 70 64
3 55 65
1 50 70
DEPOT_SECTION: 
8
-1
DEMAND_SECTION: 
2 24
8 0
1 9
4 37
6 22
3 37
5 24
7 31
EOF
