benchmarks_vrp/CMT2/fixed_c/CMT2_9.tour
NAME: CMT2_9 solution
TYPE: TOUR
TOUR_SECTION:
8 3 6 -1
8 7 2 4 1 5 -1
-1
EOF